p cnf 421 644
5 31 91 101 102 0
5 31 91 101 -102 0
5 31 91 -101 102 0
5 31 91 -101 -102 0
31 38 40 103 104 0
31 38 40 103 -104 0
31 38 40 -103 104 0
31 38 40 -103 -104 0
-38 40 -91 105 106 0
-38 40 -91 105 -106 0
-38 40 -91 -105 106 0
-38 40 -91 -105 -106 0
31 -40 -91 107 108 0
31 -40 -91 107 -108 0
31 -40 -91 -107 108 0
31 -40 -91 -107 -108 0
30 -31 39 109 110 0
30 -31 39 109 -110 0
30 -31 39 -109 110 0
30 -31 39 -109 -110 0
-30 39 88 111 112 0
-30 39 88 111 -112 0
-30 39 88 -111 112 0
-30 39 88 -111 -112 0
-31 39 -88 113 114 0
-31 39 -88 113 -114 0
-31 39 -88 -113 114 0
-31 39 -88 -113 -114 0
-39 69 82 115 116 0
-39 69 82 115 -116 0
-39 69 82 -115 116 0
-39 69 82 -115 -116 0
-39 69 -82 117 118 0
-39 69 -82 117 -118 0
-39 69 -82 -117 118 0
-39 69 -82 -117 -118 0
10 60 94 119 120 0
10 60 94 119 -120 0
10 60 94 -119 120 0
10 60 94 -119 -120 0
-10 24 74 121 122 0
-10 24 74 121 -122 0
-10 24 74 -121 122 0
-10 24 74 -121 -122 0
-10 60 -74 123 124 0
-10 60 -74 123 -124 0
-10 60 -74 -123 124 0
-10 60 -74 -123 -124 0
20 26 -60 125 126 0
20 26 -60 125 -126 0
20 26 -60 -125 126 0
20 26 -60 -125 -126 0
-20 52 87 127 128 0
-20 52 87 127 -128 0
-20 52 87 -127 128 0
-20 52 87 -127 -128 0
52 -60 -87 129 130 0
52 -60 -87 129 -130 0
52 -60 -87 -129 130 0
52 -60 -87 -129 -130 0
26 -52 94 131 132 0
26 -52 94 131 -132 0
26 -52 94 -131 132 0
26 -52 94 -131 -132 0
-26 45 57 133 134 0
-26 45 57 133 -134 0
-26 45 57 -133 134 0
-26 45 57 -133 -134 0
-26 -45 57 135 136 0
-26 -45 57 135 -136 0
-26 -45 57 -135 136 0
-26 -45 57 -135 -136 0
-26 -57 100 137 138 0
-26 -57 100 137 -138 0
-26 -57 100 -137 138 0
-26 -57 100 -137 -138 0
24 -60 -100 139 140 0
24 -60 -100 139 -140 0
24 -60 -100 -139 140 0
24 -60 -100 -139 -140 0
11 -24 38 141 142 0
11 -24 38 141 -142 0
11 -24 38 -141 142 0
11 -24 38 -141 -142 0
5 11 -38 143 144 0
5 11 -38 143 -144 0
5 11 -38 -143 144 0
5 11 -38 -143 -144 0
5 -11 -24 145 146 0
5 -11 -24 145 -146 0
5 -11 -24 -145 146 0
5 -11 -24 -145 -146 0
4 42 -69 147 148 0
4 42 -69 147 -148 0
4 42 -69 -147 148 0
4 42 -69 -147 -148 0
4 -42 100 149 150 0
4 -42 100 149 -150 0
4 -42 100 -149 150 0
4 -42 100 -149 -150 0
-42 -69 -100 151 152 0
-42 -69 -100 151 -152 0
-42 -69 -100 -151 152 0
-42 -69 -100 -151 -152 0
71 83 -94 153 154 0
71 83 -94 153 -154 0
71 83 -94 -153 154 0
71 83 -94 -153 -154 0
-4 -71 83 155 156 0
-4 -71 83 155 -156 0
-4 -71 83 -155 156 0
-4 -71 83 -155 -156 0
-4 -83 -94 157 158 0
-4 -83 -94 157 -158 0
-4 -83 -94 -157 158 0
-4 -83 -94 -157 -158 0
-5 59 73 159 160 0
-5 59 73 159 -160 0
-5 59 73 -159 160 0
-5 59 73 -159 -160 0
-5 59 -73 161 162 0
-5 59 -73 161 -162 0
-5 59 -73 -161 162 0
-5 59 -73 -161 -162 0
13 -59 78 163 164 0
13 -59 78 163 -164 0
13 -59 78 -163 164 0
13 -59 78 -163 -164 0
15 77 92 165 166 0
15 77 92 165 -166 0
15 77 92 -165 166 0
15 77 92 -165 -166 0
53 -77 92 167 168 0
53 -77 92 167 -168 0
53 -77 92 -167 168 0
53 -77 92 -167 -168 0
28 -53 98 169 170 0
28 -53 98 169 -170 0
28 -53 98 -169 170 0
28 -53 98 -169 -170 0
-28 -53 98 171 172 0
-28 -53 98 171 -172 0
-28 -53 98 -171 172 0
-28 -53 98 -171 -172 0
22 89 -98 173 174 0
22 89 -98 173 -174 0
22 89 -98 -173 174 0
22 89 -98 -173 -174 0
22 -53 -89 175 176 0
22 -53 -89 175 -176 0
22 -53 -89 -175 176 0
22 -53 -89 -175 -176 0
12 -22 58 177 178 0
12 -22 58 177 -178 0
12 -22 58 -177 178 0
12 -22 58 -177 -178 0
12 -58 -98 179 180 0
12 -58 -98 179 -180 0
12 -58 -98 -179 180 0
12 -58 -98 -179 -180 0
-12 -22 -53 181 182 0
-12 -22 -53 181 -182 0
-12 -22 -53 -181 182 0
-12 -22 -53 -181 -182 0
15 18 36 183 184 0
15 18 36 183 -184 0
15 18 36 -183 184 0
15 18 36 -183 -184 0
21 -36 -92 185 186 0
21 -36 -92 185 -186 0
21 -36 -92 -185 186 0
21 -36 -92 -185 -186 0
18 -21 -36 187 188 0
18 -21 -36 187 -188 0
18 -21 -36 -187 188 0
18 -21 -36 -187 -188 0
-18 -92 96 189 190 0
-18 -92 96 189 -190 0
-18 -92 96 -189 190 0
-18 -92 96 -189 -190 0
-18 -78 -96 191 192 0
-18 -78 -96 191 -192 0
-18 -78 -96 -191 192 0
-18 -78 -96 -191 -192 0
13 -15 -78 193 194 0
13 -15 -78 193 -194 0
13 -15 -78 -193 194 0
13 -15 -78 -193 -194 0
1 8 42 195 196 0
1 8 42 195 -196 0
1 8 42 -195 196 0
1 8 42 -195 -196 0
56 61 91 197 198 0
56 61 91 197 -198 0
56 61 91 -197 198 0
56 61 91 -197 -198 0
2 -56 61 199 200 0
2 -56 61 199 -200 0
2 -56 61 -199 200 0
2 -56 61 -199 -200 0
2 8 61 201 202 0
2 8 61 201 -202 0
2 8 61 -201 202 0
2 8 61 -201 -202 0
-2 -42 61 203 204 0
-2 -42 61 203 -204 0
-2 -42 61 -203 204 0
-2 -42 61 -203 -204 0
1 -42 -61 205 206 0
1 -42 -61 205 -206 0
1 -42 -61 -205 206 0
1 -42 -61 -205 -206 0
-8 -13 64 207 208 0
-8 -13 64 207 -208 0
-8 -13 64 -207 208 0
-8 -13 64 -207 -208 0
32 -64 88 209 210 0
32 -64 88 209 -210 0
32 -64 88 -209 210 0
32 -64 88 -209 -210 0
-8 -32 -64 211 212 0
-8 -32 -64 211 -212 0
-8 -32 -64 -211 212 0
-8 -32 -64 -211 -212 0
-8 28 -88 213 214 0
-8 28 -88 213 -214 0
-8 28 -88 -213 214 0
-8 28 -88 -213 -214 0
-28 -64 -88 215 216 0
-28 -64 -88 215 -216 0
-28 -64 -88 -215 216 0
-28 -64 -88 -215 -216 0
-1 -13 -59 217 218 0
-1 -13 -59 217 -218 0
-1 -13 -59 -217 218 0
-1 -13 -59 -217 -218 0
-35 -40 65 219 220 0
-35 -40 65 219 -220 0
-35 -40 65 -219 220 0
-35 -40 65 -219 -220 0
-40 -65 77 221 222 0
-40 -65 77 221 -222 0
-40 -65 77 -221 222 0
-40 -65 77 -221 -222 0
-35 -77 -83 223 224 0
-35 -77 -83 223 -224 0
-35 -77 -83 -223 224 0
-35 -77 -83 -223 -224 0
33 62 78 225 226 0
33 62 78 225 -226 0
33 62 78 -225 226 0
33 62 78 -225 -226 0
47 53 -65 227 228 0
47 53 -65 227 -228 0
47 53 -65 -227 228 0
47 53 -65 -227 -228 0
30 37 58 229 230 0
30 37 58 229 -230 0
30 37 58 -229 230 0
30 37 58 -229 -230 0
-37 58 71 231 232 0
-37 58 71 231 -232 0
-37 58 71 -231 232 0
-37 58 71 -231 -232 0
-12 -37 71 233 234 0
-12 -37 71 233 -234 0
-12 -37 71 -233 234 0
-12 -37 71 -233 -234 0
20 30 51 235 236 0
20 30 51 235 -236 0
20 30 51 -235 236 0
20 30 51 -235 -236 0
20 -51 -71 237 238 0
20 -51 -71 237 -238 0
20 -51 -71 -237 238 0
20 -51 -71 -237 -238 0
-32 -61 89 239 240 0
-32 -61 89 239 -240 0
-32 -61 89 -239 240 0
-32 -61 89 -239 -240 0
27 -63 65 241 242 0
27 -63 65 241 -242 0
27 -63 65 -241 242 0
27 -63 65 -241 -242 0
-22 -48 50 243 244 0
-22 -48 50 243 -244 0
-22 -48 50 -243 244 0
-22 -48 50 -243 -244 0
-89 -97 98 245 246 0
-89 -97 98 245 -246 0
-89 -97 98 -245 246 0
-89 -97 98 -245 -246 0
49 -50 -82 247 248 0
49 -50 -82 247 -248 0
49 -50 -82 -247 248 0
49 -50 -82 -247 -248 0
-16 -46 95 249 250 0
-16 -46 95 249 -250 0
-16 -46 95 -249 250 0
-16 -46 95 -249 -250 0
-16 -46 -95 251 252 0
-16 -46 -95 251 -252 0
-16 -46 -95 -251 252 0
-16 -46 -95 -251 -252 0
-17 -37 -76 253 254 0
-17 -37 -76 253 -254 0
-17 -37 -76 -253 254 0
-17 -37 -76 -253 -254 0
51 -93 -99 255 256 0
51 -93 -99 255 -256 0
51 -93 -99 -255 256 0
51 -93 -99 -255 -256 0
27 76 79 257 258 0
27 76 79 257 -258 0
27 76 79 -257 258 0
27 76 79 -257 -258 0
-52 76 79 259 260 0
-52 76 79 259 -260 0
-52 76 79 -259 260 0
-52 76 79 -259 -260 0
-1 -25 68 261 262 0
-1 -25 68 261 -262 0
-1 -25 68 -261 262 0
-1 -25 68 -261 -262 0
34 -58 -75 263 264 0
34 -58 -75 263 -264 0
34 -58 -75 -263 264 0
34 -58 -75 -263 -264 0
-15 -20 -90 265 266 0
-15 -20 -90 265 -266 0
-15 -20 -90 -265 266 0
-15 -20 -90 -265 -266 0
33 64 85 267 268 0
33 64 85 267 -268 0
33 64 85 -267 268 0
33 64 85 -267 -268 0
-11 64 -85 269 270 0
-11 64 -85 269 -270 0
-11 64 -85 -269 270 0
-11 64 -85 -269 -270 0
-18 -33 -48 271 272 0
-18 -33 -48 271 -272 0
-18 -33 -48 -271 272 0
-18 -33 -48 -271 -272 0
54 -63 75 273 274 0
54 -63 75 273 -274 0
54 -63 75 -273 274 0
54 -63 75 -273 -274 0
3 -49 -95 275 276 0
3 -49 -95 275 -276 0
3 -49 -95 -275 276 0
3 -49 -95 -275 -276 0
-3 74 -95 277 278 0
-3 74 -95 277 -278 0
-3 74 -95 -277 278 0
-3 74 -95 -277 -278 0
-33 44 -54 279 280 0
-33 44 -54 279 -280 0
-33 44 -54 -279 280 0
-33 44 -54 -279 -280 0
-44 -50 -54 281 282 0
-44 -50 -54 281 -282 0
-44 -50 -54 -281 282 0
-44 -50 -54 -281 -282 0
-2 82 96 283 284 0
-2 82 96 283 -284 0
-2 82 96 -283 284 0
-2 82 96 -283 -284 0
16 49 82 285 286 0
16 49 82 285 -286 0
16 49 82 -285 286 0
16 49 82 -285 -286 0
-19 -41 -44 287 288 0
-19 -41 -44 287 -288 0
-19 -41 -44 -287 288 0
-19 -41 -44 -287 -288 0
46 -49 81 289 290 0
46 -49 81 289 -290 0
46 -49 81 -289 290 0
46 -49 81 -289 -290 0
-3 -23 25 291 292 0
-3 -23 25 291 -292 0
-3 -23 25 -291 292 0
-3 -23 25 -291 -292 0
29 34 63 293 294 0
29 34 63 293 -294 0
29 34 63 -293 294 0
29 34 63 -293 -294 0
-25 -34 -75 295 296 0
-25 -34 -75 295 -296 0
-25 -34 -75 -295 296 0
-25 -34 -75 -295 -296 0
-23 44 -70 297 298 0
-23 44 -70 297 -298 0
-23 44 -70 -297 298 0
-23 44 -70 -297 -298 0
-29 -38 -82 299 300 0
-29 -38 -82 299 -300 0
-29 -38 -82 -299 300 0
-29 -38 -82 -299 -300 0
-7 -49 -77 301 302 0
-7 -49 -77 301 -302 0
-7 -49 -77 -301 302 0
-7 -49 -77 -301 -302 0
6 44 81 303 304 0
6 44 81 303 -304 0
6 44 81 -303 304 0
6 44 81 -303 -304 0
17 -19 -86 305 306 0
17 -19 -86 305 -306 0
17 -19 -86 -305 306 0
17 -19 -86 -305 -306 0
-29 -73 93 307 308 0
-29 -73 93 307 -308 0
-29 -73 93 -307 308 0
-29 -73 93 -307 -308 0
11 -52 -85 309 310 0
11 -52 -85 309 -310 0
11 -52 -85 -309 310 0
11 -52 -85 -309 -310 0
-44 46 64 311 312 0
-44 46 64 311 -312 0
-44 46 64 -311 312 0
-44 46 64 -311 -312 0
-17 -34 95 313 314 0
-17 -34 95 313 -314 0
-17 -34 95 -313 314 0
-17 -34 95 -313 -314 0
17 47 -57 315 316 0
17 47 -57 315 -316 0
17 47 -57 -315 316 0
17 47 -57 -315 -316 0
-81 -96 97 317 318 0
-81 -96 97 317 -318 0
-81 -96 97 -317 318 0
-81 -96 97 -317 -318 0
3 -34 99 319 320 0
3 -34 99 319 -320 0
3 -34 99 -319 320 0
3 -34 99 -319 -320 0
43 -56 -76 321 322 0
43 -56 -76 321 -322 0
43 -56 -76 -321 322 0
43 -56 -76 -321 -322 0
-27 72 -79 323 324 0
-27 72 -79 323 -324 0
-27 72 -79 -323 324 0
-27 72 -79 -323 -324 0
-6 -27 70 325 326 0
-6 -27 70 325 -326 0
-6 -27 70 -325 326 0
-6 -27 70 -325 -326 0
55 67 73 327 328 0
55 67 73 327 -328 0
55 67 73 -327 328 0
55 67 73 -327 -328 0
16 -74 -84 329 330 0
16 -74 -84 329 -330 0
16 -74 -84 -329 330 0
16 -74 -84 -329 -330 0
-43 90 97 331 332 0
-43 90 97 331 -332 0
-43 90 97 -331 332 0
-43 90 97 -331 -332 0
50 56 -93 333 334 0
50 56 -93 333 -334 0
50 56 -93 -333 334 0
50 56 -93 -333 -334 0
-47 -70 -90 335 336 0
-47 -70 -90 335 -336 0
-47 -70 -90 -335 336 0
-47 -70 -90 -335 -336 0
14 16 -79 337 338 0
14 16 -79 337 -338 0
14 16 -79 -337 338 0
14 16 -79 -337 -338 0
45 -66 80 339 340 0
45 -66 80 339 -340 0
45 -66 80 -339 340 0
45 -66 80 -339 -340 0
66 -66 -68 341 342 0
66 -66 -68 341 -342 0
66 -66 -68 -341 342 0
66 -66 -68 -341 -342 0
10 -80 87 343 344 0
10 -80 87 343 -344 0
10 -80 87 -343 344 0
10 -80 87 -343 -344 0
-55 -81 93 345 346 0
-55 -81 93 345 -346 0
-55 -81 93 -345 346 0
-55 -81 93 -345 -346 0
37 -45 72 347 348 0
37 -45 72 347 -348 0
37 -45 72 -347 348 0
37 -45 72 -347 -348 0
19 68 -97 349 350 0
19 68 -97 349 -350 0
19 68 -97 -349 350 0
19 68 -97 -349 -350 0
-9 -70 -93 351 352 0
-9 -70 -93 351 -352 0
-9 -70 -93 -351 352 0
-9 -70 -93 -351 -352 0
7 35 54 353 354 0
7 35 54 353 -354 0
7 35 54 -353 354 0
7 35 54 -353 -354 0
-41 -55 355 356 357 0
-41 -55 355 356 -357 0
-41 -55 355 -356 357 0
-41 -55 355 -356 -357 0
-41 -55 -355 356 357 0
-41 -55 -355 356 -357 0
-41 -55 -355 -356 357 0
-41 -55 -355 -356 -357 0
14 -14 70 358 359 0
14 -14 70 358 -359 0
14 -14 70 -358 359 0
14 -14 70 -358 -359 0
23 -23 -62 360 361 0
23 -23 -62 360 -361 0
23 -23 -62 -360 361 0
23 -23 -62 -360 -361 0
23 -67 -80 362 363 0
23 -67 -80 362 -363 0
23 -67 -80 -362 363 0
23 -67 -80 -362 -363 0
10 36 -51 364 365 0
10 36 -51 364 -365 0
10 36 -51 -364 365 0
10 36 -51 -364 -365 0
21 -68 85 366 367 0
21 -68 85 366 -367 0
21 -68 85 -366 367 0
21 -68 85 -366 -367 0
-6 43 -55 368 369 0
-6 43 -55 368 -369 0
-6 43 -55 -368 369 0
-6 43 -55 -368 -369 0
32 48 86 370 371 0
32 48 86 370 -371 0
32 48 86 -370 371 0
32 48 86 -370 -371 0
21 -41 99 372 373 0
21 -41 99 372 -373 0
21 -41 99 -372 373 0
21 -41 99 -372 -373 0
14 81 97 374 375 0
14 81 97 374 -375 0
14 81 97 -374 375 0
14 81 97 -374 -375 0
-9 -43 -72 376 377 0
-9 -43 -72 376 -377 0
-9 -43 -72 -376 377 0
-9 -43 -72 -376 -377 0
7 -9 -79 378 379 0
7 -9 -79 378 -379 0
7 -9 -79 -378 379 0
7 -9 -79 -378 -379 0
-41 84 -90 380 381 0
-41 84 -90 380 -381 0
-41 84 -90 -380 381 0
-41 84 -90 -380 -381 0
25 -72 86 382 383 0
25 -72 86 382 -383 0
25 -72 86 -382 383 0
25 -72 86 -382 -383 0
-9 -46 63 384 385 0
-9 -46 63 384 -385 0
-9 -46 63 -384 385 0
-9 -46 63 -384 -385 0
6 -14 38 386 387 0
6 -14 38 386 -387 0
6 -14 38 -386 387 0
6 -14 38 -386 -387 0
7 -21 35 388 389 0
7 -21 35 388 -389 0
7 -21 35 -388 389 0
7 -21 35 -388 -389 0
9 -87 99 390 391 0
9 -87 99 390 -391 0
9 -87 99 -390 391 0
9 -87 99 -390 -391 0
-20 -58 80 392 393 0
-20 -58 80 392 -393 0
-20 -58 80 -392 393 0
-20 -58 80 -392 -393 0
-3 75 -86 394 395 0
-3 75 -86 394 -395 0
-3 75 -86 -394 395 0
-3 75 -86 -394 -395 0
19 -62 84 396 397 0
19 -62 84 396 -397 0
19 -62 84 -396 397 0
19 -62 84 -396 -397 0
-14 -67 82 398 399 0
-14 -67 82 398 -399 0
-14 -67 82 -398 399 0
-14 -67 82 -398 -399 0
-27 48 -68 400 401 0
-27 48 -68 400 -401 0
-27 48 -68 -400 401 0
-27 48 -68 -400 -401 0
-25 45 -84 402 403 0
-25 45 -84 402 -403 0
-25 45 -84 -402 403 0
-25 45 -84 -402 -403 0
-7 41 67 404 405 0
-7 41 67 404 -405 0
-7 41 67 -404 405 0
-7 41 67 -404 -405 0
-30 -47 48 406 407 0
-30 -47 48 406 -407 0
-30 -47 48 -406 407 0
-30 -47 48 -406 -407 0
66 97 -99 408 409 0
66 97 -99 408 -409 0
66 97 -99 -408 409 0
66 97 -99 -408 -409 0
9 41 55 410 411 0
9 41 55 410 -411 0
9 41 55 -410 411 0
9 41 55 -410 -411 0
-29 36 -86 412 413 0
-29 36 -86 412 -413 0
-29 36 -86 -412 413 0
-29 36 -86 -412 -413 0
50 62 -81 414 415 0
50 62 -81 414 -415 0
50 62 -81 -414 415 0
50 62 -81 -414 -415 0
29 -86 90 416 417 0
29 -86 90 416 -417 0
29 -86 90 -416 417 0
29 -86 90 -416 -417 0
-48 54 -55 418 419 0
-48 54 -55 418 -419 0
-48 54 -55 -418 419 0
-48 54 -55 -418 -419 0
19 -34 89 420 421 0
19 -34 89 420 -421 0
19 -34 89 -420 421 0
19 -34 89 -420 -421 0
